qbf_easy_train/easy_3201_SAT.qdimacs
p cnf 23 57
a 9 7 0
e 1 2 3 4 5 6 8 10 11 12 13 14 15 16 17 18 19 20 21 22 23 0
3 1 0
3 2 0
-1 -2 -3 0
5 4 0
5 -1 0
-4 1 -5 0
6 5 0
6 -2 0
-5 2 -6 0
-7 -3 0
-7 6 0
3 -6 7 0
9 -8 0
9 1 0
8 -1 -9 0
-11 2 0
-11 -10 0
-2 10 11 0
-13 1 -14 0
13 -1 -14 0
-13 -1 14 0
13 1 14 0
16 4 0
16 15 0
-4 -15 -16 0
-14 16 -17 0
14 -16 -17 0
-14 -16 17 0
14 16 17 0
18 -12 0
18 -17 0
12 17 -18 0
19 -11 0
19 -18 0
11 18 -19 0
-9 19 -20 0
9 -19 -20 0
-9 -19 20 0
9 19 20 0
7 -20 -21 0
-7 20 -21 0
7 20 21 0
-7 -20 21 0
-17 -1 -22 0
17 1 -22 0
-17 1 22 0
17 -1 22 0
-21 22 -23 0
21 -22 -23 0
-21 -22 23 0
21 22 23 0
4 9 21 0
-12 5 -15 -22 3 0
-12 21 -19 0
-21 3 6 -5 -19 -17 0
3 -9 -2 7 1 13 0
23 0
