sat_easy_train/easy_3201_SAT.dimacs
p cnf 98 312
-3 -1 0
-3 -2 0
1 2 3 0
6 4 0
6 -5 0
-4 5 -6 0
-7 -3 0
-7 -6 0
3 6 7 0
-8 7 0
-8 -2 0
-7 2 8 0
-10 9 0
-10 4 0
-9 -4 10 0
11 -8 0
11 10 0
8 -10 -11 0
-15 13 0
-15 14 0
-13 -14 15 0
-16 -12 0
-16 15 0
12 -15 16 0
-17 15 -18 0
17 -15 -18 0
-17 -15 18 0
17 15 18 0
16 18 -19 0
-16 -18 -19 0
16 -18 19 0
-16 18 19 0
20 12 0
20 -13 0
-12 13 -20 0
21 -20 0
21 9 0
20 -9 -21 0
-23 -21 0
-23 22 0
21 -22 23 0
-24 -19 0
-24 -23 0
19 23 24 0
25 4 0
25 -15 0
-4 15 -25 0
-24 -25 -26 0
24 25 -26 0
-24 25 26 0
24 -25 26 0
27 11 0
27 -26 0
-11 26 -27 0
-28 -21 0
-28 -21 0
21 28 0
27 -28 -29 0
-27 28 -29 0
27 28 29 0
-27 -28 29 0
-16 -2 -30 0
16 2 -30 0
-16 2 30 0
16 -2 30 0
-31 -10 0
-31 10 0
3 -31 -32 0
-3 31 -32 0
3 31 32 0
-3 -31 32 0
-35 -13 0
-35 -34 0
13 34 35 0
36 -33 0
36 -35 0
33 35 -36 0
37 -5 0
37 4 0
5 -4 -37 0
38 3 0
38 -37 0
-3 37 -38 0
-38 -10 -39 0
38 10 -39 0
-38 10 39 0
38 -10 39 0
40 -21 0
40 -39 0
21 39 -40 0
-36 -40 -41 0
36 40 -41 0
-36 40 41 0
36 -40 41 0
-42 32 0
-42 -41 0
-32 41 42 0
-44 -2 0
-44 2 0
-45 -43 0
-45 -44 0
43 44 45 0
46 45 0
46 -15 0
-45 15 -46 0
-47 34 0
-47 46 0
-34 -46 47 0
48 22 0
48 16 0
-22 -16 -48 0
-49 47 0
-49 48 0
-47 -48 49 0
49 -14 -50 0
-49 14 -50 0
49 14 50 0
-49 -14 50 0
-51 42 0
-51 -50 0
-42 50 51 0
-30 -51 -52 0
30 51 -52 0
-30 51 52 0
30 -51 52 0
29 -52 -53 0
-29 52 -53 0
29 52 53 0
-29 -52 53 0
-54 36 0
-54 -34 0
-36 34 54 0
15 -55 0
-15 -55 0
-2 3 -56 0
2 -3 -56 0
-2 -3 56 0
2 3 56 0
-57 -56 0
-57 18 0
56 -18 57 0
58 55 0
58 -57 0
-55 57 -58 0
59 -1 0
59 -22 0
1 22 -59 0
-60 -37 0
-60 59 0
37 -59 60 0
61 -59 0
61 60 0
59 -60 -61 0
-62 18 0
-62 16 0
-18 -16 62 0
-63 -33 0
-63 -62 0
33 62 63 0
6 21 -65 0
-6 -21 -65 0
6 -21 65 0
-6 21 65 0
64 -65 -66 0
-64 65 -66 0
64 65 66 0
-64 -65 66 0
37 66 -67 0
-37 -66 -67 0
37 -66 67 0
-37 66 67 0
68 63 0
68 -67 0
-63 67 -68 0
-69 61 0
-69 68 0
-61 -68 69 0
64 21 -70 0
-64 -21 -70 0
64 -21 70 0
-64 21 70 0
-39 71 -72 0
39 -71 -72 0
-39 -71 72 0
39 71 72 0
-73 -70 0
-73 72 0
70 -72 73 0
-69 -73 -74 0
69 73 -74 0
-69 73 74 0
69 -73 74 0
-58 74 -75 0
58 -74 -75 0
-58 -74 75 0
58 74 75 0
76 -18 0
76 -43 0
18 43 -76 0
-77 -62 -78 0
77 62 -78 0
-77 62 78 0
77 -62 78 0
79 76 0
79 -78 0
-76 78 -79 0
-80 -77 0
-80 7 0
77 -7 80 0
81 -17 0
81 -6 0
17 6 -81 0
-82 -80 0
-82 81 0
80 -81 82 0
-83 3 0
-83 -38 0
-3 38 83 0
84 -38 0
84 83 0
38 -83 -84 0
84 3 -85 0
-84 -3 -85 0
84 -3 85 0
-84 3 85 0
-86 -82 0
-86 85 0
82 -85 86 0
-17 -5 -87 0
17 5 -87 0
-17 5 87 0
17 -5 87 0
86 87 -88 0
-86 -87 -88 0
86 -87 88 0
-86 87 88 0
89 17 0
89 6 0
-17 -6 -89 0
-90 88 0
-90 -89 0
-88 89 90 0
-48 -14 -91 0
48 14 -91 0
-48 14 91 0
48 -14 91 0
92 -12 0
92 -62 0
12 62 -92 0
-91 92 -93 0
91 -92 -93 0
-91 -92 93 0
91 92 93 0
94 90 0
94 93 0
-90 -93 -94 0
95 79 0
95 94 0
-79 -94 -95 0
75 -95 -96 0
-75 95 -96 0
75 95 96 0
-75 -95 96 0
-97 -54 0
-97 -96 0
54 96 97 0
-53 -97 -98 0
53 97 -98 0
-53 97 98 0
53 -97 98 0
-91 86 -93 14 0
-28 48 -47 -1 0
-31 80 -44 11 15 21 0
-66 -33 0
-91 29 -3 0
48 77 75 -49 16 0
72 -24 9 -77 -95 -43 0
56 -34 -25 -18 97 0
56 -54 -38 61 0
69 -74 -25 -40 -77 52 0
36 -47 -62 0
-6 -92 -67 16 0
-80 44 0
20 0
-58 -66 30 45 36 0
-40 33 30 0
-79 18 -29 14 0
-10 -70 6 0
35 -37 0
-93 -35 -37 0
2 54 46 -31 0
37 79 73 91 -48 36 0
-84 33 -26 7 -12 0
66 17 36 -71 22 0
85 -30 54 2 -5 0
-20 -71 -67 -93 78 0
66 -16 -83 41 0
58 60 50 84 -61 -31 0
49 27 0
-86 -65 -37 19 -10 -21 0
-29 -75 -94 -4 68 16 0
-9 -47 0
2 30 -77 42 84 0
-81 -56 -77 72 64 -52 0
48 -66 74 0
-17 90 -70 -1 0
-58 -25 0
-20 -10 8 -22 0
15 84 30 78 97 5 0
82 42 0
35 -33 52 10 -11 0
98 0
